NAME : kroB150.28311.tour
COMMENT : Cost = 9503_28311
COMMENT : Found by LKH [Keld Helsgaun] Thu Nov 16 17:24:53 2017
TYPE : TOUR
DIMENSION : 152
TOUR_SECTION
1
15
13
67
31
47
149
6
54
134
75
138
62
83
50
133
86
43
5
119
56
101
38
71
124
72
126
39
28
88
148
98
58
109
145
34
90
25
17
114
108
113
22
112
8
106
42
55
64
20
110
79
152
53
125
46
142
29
18
49
105
19
92
10
99
141
14
36
57
74
100
33
45
81
136
97
144
96
87
150
52
11
84
128
103
48
66
44
63
51
127
146
135
16
120
37
9
78
82
7
26
61
132
32
117
24
137
151
85
27
107
130
65
147
104
80
115
77
30
68
2
35
23
102
91
123
94
95
129
76
70
111
121
131
139
21
122
89
41
59
118
73
3
69
140
60
116
4
143
93
12
40
-1
EOF
